c File: flat50_3_0.col
c
c SOURCE: Joseph Culberson (joe@cs.ualberta.ca)
c DESCRIPTION: Quasi-random coloring problem
c              generated with flatness = 0
c                             probability = 0.139
c                             known coloring = 3
c                             random seed = 1643
c              Creation Date:  Tue Jun  9 12:14:21 1998
c Maximum degree = 8 Minimum degree = 0
c p edge 50 115
c cnf created by edge2cnf
p cnf 150 545
-1 -2 0
-1 -3 0
-2 -3 0
1 2 3 0
-4 -5 0
-4 -6 0
-5 -6 0
4 5 6 0
-7 -8 0
-7 -9 0
-8 -9 0
7 8 9 0
-10 -11 0
-10 -12 0
-11 -12 0
10 11 12 0
-13 -14 0
-13 -15 0
-14 -15 0
13 14 15 0
-16 -17 0
-16 -18 0
-17 -18 0
16 17 18 0
-19 -20 0
-19 -21 0
-20 -21 0
19 20 21 0
-22 -23 0
-22 -24 0
-23 -24 0
22 23 24 0
-25 -26 0
-25 -27 0
-26 -27 0
25 26 27 0
-28 -29 0
-28 -30 0
-29 -30 0
28 29 30 0
-31 -32 0
-31 -33 0
-32 -33 0
31 32 33 0
-34 -35 0
-34 -36 0
-35 -36 0
34 35 36 0
-37 -38 0
-37 -39 0
-38 -39 0
37 38 39 0
-40 -41 0
-40 -42 0
-41 -42 0
40 41 42 0
-43 -44 0
-43 -45 0
-44 -45 0
43 44 45 0
-46 -47 0
-46 -48 0
-47 -48 0
46 47 48 0
-49 -50 0
-49 -51 0
-50 -51 0
49 50 51 0
-52 -53 0
-52 -54 0
-53 -54 0
52 53 54 0
-55 -56 0
-55 -57 0
-56 -57 0
55 56 57 0
-58 -59 0
-58 -60 0
-59 -60 0
58 59 60 0
-61 -62 0
-61 -63 0
-62 -63 0
61 62 63 0
-64 -65 0
-64 -66 0
-65 -66 0
64 65 66 0
-67 -68 0
-67 -69 0
-68 -69 0
67 68 69 0
-70 -71 0
-70 -72 0
-71 -72 0
70 71 72 0
-73 -74 0
-73 -75 0
-74 -75 0
73 74 75 0
-76 -77 0
-76 -78 0
-77 -78 0
76 77 78 0
-79 -80 0
-79 -81 0
-80 -81 0
79 80 81 0
-82 -83 0
-82 -84 0
-83 -84 0
82 83 84 0
-85 -86 0
-85 -87 0
-86 -87 0
85 86 87 0
-88 -89 0
-88 -90 0
-89 -90 0
88 89 90 0
-91 -92 0
-91 -93 0
-92 -93 0
91 92 93 0
-94 -95 0
-94 -96 0
-95 -96 0
94 95 96 0
-97 -98 0
-97 -99 0
-98 -99 0
97 98 99 0
-100 -101 0
-100 -102 0
-101 -102 0
100 101 102 0
-103 -104 0
-103 -105 0
-104 -105 0
103 104 105 0
-106 -107 0
-106 -108 0
-107 -108 0
106 107 108 0
-109 -110 0
-109 -111 0
-110 -111 0
109 110 111 0
-112 -113 0
-112 -114 0
-113 -114 0
112 113 114 0
-115 -116 0
-115 -117 0
-116 -117 0
115 116 117 0
-118 -119 0
-118 -120 0
-119 -120 0
118 119 120 0
-121 -122 0
-121 -123 0
-122 -123 0
121 122 123 0
-124 -125 0
-124 -126 0
-125 -126 0
124 125 126 0
-127 -128 0
-127 -129 0
-128 -129 0
127 128 129 0
-130 -131 0
-130 -132 0
-131 -132 0
130 131 132 0
-133 -134 0
-133 -135 0
-134 -135 0
133 134 135 0
-136 -137 0
-136 -138 0
-137 -138 0
136 137 138 0
-139 -140 0
-139 -141 0
-140 -141 0
139 140 141 0
-142 -143 0
-142 -144 0
-143 -144 0
142 143 144 0
-145 -146 0
-145 -147 0
-146 -147 0
145 146 147 0
-148 -149 0
-148 -150 0
-149 -150 0
148 149 150 0
-52 -1 0
-53 -2 0
-54 -3 0
-79 -1 0
-80 -2 0
-81 -3 0
-109 -1 0
-110 -2 0
-111 -3 0
-112 -1 0
-113 -2 0
-114 -3 0
-130 -1 0
-131 -2 0
-132 -3 0
-142 -1 0
-143 -2 0
-144 -3 0
-73 -4 0
-74 -5 0
-75 -6 0
-91 -4 0
-92 -5 0
-93 -6 0
-121 -4 0
-122 -5 0
-123 -6 0
-58 -7 0
-59 -8 0
-60 -9 0
-118 -7 0
-119 -8 0
-120 -9 0
-127 -7 0
-128 -8 0
-129 -9 0
-70 -10 0
-71 -11 0
-72 -12 0
-85 -10 0
-86 -11 0
-87 -12 0
-88 -10 0
-89 -11 0
-90 -12 0
-97 -10 0
-98 -11 0
-99 -12 0
-115 -10 0
-116 -11 0
-117 -12 0
-136 -10 0
-137 -11 0
-138 -12 0
-145 -10 0
-146 -11 0
-147 -12 0
-76 -13 0
-77 -14 0
-78 -15 0
-103 -13 0
-104 -14 0
-105 -15 0
-115 -13 0
-116 -14 0
-117 -15 0
-73 -16 0
-74 -17 0
-75 -18 0
-76 -16 0
-77 -17 0
-78 -18 0
-94 -16 0
-95 -17 0
-96 -18 0
-118 -16 0
-119 -17 0
-120 -18 0
-55 -19 0
-56 -20 0
-57 -21 0
-70 -19 0
-71 -20 0
-72 -21 0
-76 -19 0
-77 -20 0
-78 -21 0
-88 -19 0
-89 -20 0
-90 -21 0
-118 -19 0
-119 -20 0
-120 -21 0
-124 -19 0
-125 -20 0
-126 -21 0
-133 -19 0
-134 -20 0
-135 -21 0
-148 -19 0
-149 -20 0
-150 -21 0
-55 -22 0
-56 -23 0
-57 -24 0
-73 -22 0
-74 -23 0
-75 -24 0
-91 -22 0
-92 -23 0
-93 -24 0
-106 -22 0
-107 -23 0
-108 -24 0
-139 -22 0
-140 -23 0
-141 -24 0
-91 -25 0
-92 -26 0
-93 -27 0
-106 -25 0
-107 -26 0
-108 -27 0
-115 -25 0
-116 -26 0
-117 -27 0
-85 -28 0
-86 -29 0
-87 -30 0
-94 -28 0
-95 -29 0
-96 -30 0
-100 -28 0
-101 -29 0
-102 -30 0
-121 -28 0
-122 -29 0
-123 -30 0
-148 -28 0
-149 -29 0
-150 -30 0
-67 -31 0
-68 -32 0
-69 -33 0
-94 -31 0
-95 -32 0
-96 -33 0
-109 -31 0
-110 -32 0
-111 -33 0
-121 -31 0
-122 -32 0
-123 -33 0
-130 -31 0
-131 -32 0
-132 -33 0
-79 -34 0
-80 -35 0
-81 -36 0
-94 -34 0
-95 -35 0
-96 -36 0
-55 -37 0
-56 -38 0
-57 -39 0
-91 -37 0
-92 -38 0
-93 -39 0
-97 -37 0
-98 -38 0
-99 -39 0
-115 -37 0
-116 -38 0
-117 -39 0
-136 -37 0
-137 -38 0
-138 -39 0
-145 -37 0
-146 -38 0
-147 -39 0
-85 -40 0
-86 -41 0
-87 -42 0
-88 -40 0
-89 -41 0
-90 -42 0
-121 -40 0
-122 -41 0
-123 -42 0
-124 -40 0
-125 -41 0
-126 -42 0
-136 -40 0
-137 -41 0
-138 -42 0
-145 -40 0
-146 -41 0
-147 -42 0
-52 -43 0
-53 -44 0
-54 -45 0
-79 -43 0
-80 -44 0
-81 -45 0
-100 -43 0
-101 -44 0
-102 -45 0
-124 -43 0
-125 -44 0
-126 -45 0
-142 -46 0
-143 -47 0
-144 -48 0
-145 -46 0
-146 -47 0
-147 -48 0
-64 -49 0
-65 -50 0
-66 -51 0
-67 -49 0
-68 -50 0
-69 -51 0
-70 -49 0
-71 -50 0
-72 -51 0
-79 -49 0
-80 -50 0
-81 -51 0
-142 -49 0
-143 -50 0
-144 -51 0
-103 -55 0
-104 -56 0
-105 -57 0
-112 -55 0
-113 -56 0
-114 -57 0
-121 -55 0
-122 -56 0
-123 -57 0
-139 -55 0
-140 -56 0
-141 -57 0
-124 -58 0
-125 -59 0
-126 -60 0
-130 -58 0
-131 -59 0
-132 -60 0
-145 -58 0
-146 -59 0
-147 -60 0
-106 -61 0
-107 -62 0
-108 -63 0
-136 -61 0
-137 -62 0
-138 -63 0
-112 -64 0
-113 -65 0
-114 -66 0
-115 -64 0
-116 -65 0
-117 -66 0
-139 -64 0
-140 -65 0
-141 -66 0
-106 -67 0
-107 -68 0
-108 -69 0
-139 -67 0
-140 -68 0
-141 -69 0
-148 -67 0
-149 -68 0
-150 -69 0
-118 -70 0
-119 -71 0
-120 -72 0
-127 -73 0
-128 -74 0
-129 -75 0
-127 -76 0
-128 -77 0
-129 -78 0
-145 -76 0
-146 -77 0
-147 -78 0
-142 -79 0
-143 -80 0
-144 -81 0
-106 -85 0
-107 -86 0
-108 -87 0
-109 -85 0
-110 -86 0
-111 -87 0
-118 -85 0
-119 -86 0
-120 -87 0
-124 -85 0
-125 -86 0
-126 -87 0
-103 -88 0
-104 -89 0
-105 -90 0
-115 -88 0
-116 -89 0
-117 -90 0
-118 -88 0
-119 -89 0
-120 -90 0
-145 -88 0
-146 -89 0
-147 -90 0
-103 -91 0
-104 -92 0
-105 -93 0
-106 -91 0
-107 -92 0
-108 -93 0
-133 -91 0
-134 -92 0
-135 -93 0
-148 -91 0
-149 -92 0
-150 -93 0
-109 -97 0
-110 -98 0
-111 -99 0
-121 -97 0
-122 -98 0
-123 -99 0
-145 -97 0
-146 -98 0
-147 -99 0
-121 -100 0
-122 -101 0
-123 -102 0
-136 -100 0
-137 -101 0
-138 -102 0
-148 -100 0
-149 -101 0
-150 -102 0
